start optimization_calc

memory total 4000 mb

geometry units angstroms
{geom}
end

basis
* library def2-TZVP
end

dft
  xc b3lyp
  convergence verytight
  grid ultrafine
end

task dft optimize
